NAME: tsp30-33
TYPE: TSP
DIMENSION: 30
EDGE_WEIGHT_TYPE: EUC_2D
NODE_COORD_SECTION
0 30 87
1 46 65
2 31 46
3 36 27
4 76 67
5 21 10
6 28 37
7 67 11
8 76 23
9 18 1
10 65 63
11 39 3
12 20 17
13 92 60
14 7 61
15 26 40
16 87 69
17 49 17
18 89 14
19 16 23
20 44 4
21 51 43
22 36 16
23 79 3
24 84 60
25 21 19
26 65 93
27 89 54
28 2 0
29 36 9
EOF